solution status: optimal solution found
objective value:                     141072.524051009
d11(0,0)                                            1 	(obj:0)
d11(1,1)                                            1 	(obj:0)
d11(1,2)                                            1 	(obj:0)
d11(1,3)                                            1 	(obj:0)
d11(2,4)                                            1 	(obj:0)
d11(2,10)                                           1 	(obj:0)
d11(3,13)                                           1 	(obj:0)
d11(3,16)                                           1 	(obj:0)
d11(3,19)                                           1 	(obj:0)
d11(3,22)                                           1 	(obj:0)
d11(3,25)                                           1 	(obj:0)
d11(3,28)                                           1 	(obj:0)
d11(3,31)                                           1 	(obj:0)
d11(3,34)                                           1 	(obj:0)
d11(3,37)                                           1 	(obj:0)
d12(2,5)                                            1 	(obj:0)
d12(2,6)                                            1 	(obj:0)
d12(2,8)                                            1 	(obj:0)
d12(2,9)                                            1 	(obj:0)
d12(2,11)                                           1 	(obj:0)
d12(2,12)                                           1 	(obj:0)
d12(3,14)                                           1 	(obj:0)
d12(3,15)                                           1 	(obj:0)
d12(3,17)                                           1 	(obj:0)
d12(3,18)                                           1 	(obj:0)
d12(3,20)                                           1 	(obj:0)
d12(3,21)                                           1 	(obj:0)
d12(3,23)                                           1 	(obj:0)
d12(3,24)                                           1 	(obj:0)
d12(3,26)                                           1 	(obj:0)
d12(3,27)                                           1 	(obj:0)
d12(3,29)                                           1 	(obj:0)
d12(3,30)                                           1 	(obj:0)
d12(3,32)                                           1 	(obj:0)
d12(3,33)                                           1 	(obj:0)
d12(3,35)                                           1 	(obj:0)
d12(3,36)                                           1 	(obj:0)
d12(3,38)                                           1 	(obj:0)
d12(3,39)                                           1 	(obj:0)
d21(2,4)                                            1 	(obj:0)
d21(3,13)                                           1 	(obj:0)
d21(3,14)                                           1 	(obj:0)
d21(3,15)                                           1 	(obj:0)
d21(3,16)                                           1 	(obj:0)
d21(3,17)                                           1 	(obj:0)
d21(3,19)                                           1 	(obj:0)
d21(3,22)                                           1 	(obj:0)
d21(3,23)                                           1 	(obj:0)
d21(3,25)                                           1 	(obj:0)
y2(3,24)                             1593.08517427924 	(obj:0)
y2(3,26)                               497.3781912792 	(obj:0)
y2(3,27)                             1593.08517427924 	(obj:0)
y2(3,29)                             497.378191279204 	(obj:0)
y2(3,30)                             1593.08517427924 	(obj:0)
y2(3,32)                               497.3781912792 	(obj:0)
y2(3,33)                             1593.08517427924 	(obj:0)
y2(3,35)                               497.3781912792 	(obj:0)
y2(3,36)                             1593.08517427924 	(obj:0)
y2(3,38)                               497.3781912792 	(obj:0)
y2(3,39)                             1593.08517427924 	(obj:0)
STE(1,1)                             6045.33806785005 	(obj:0)
STE(0,0)                                        14175 	(obj:0)
STE(1,2)                             7042.10407118332 	(obj:0)
STE(1,3)                             8259.55627451672 	(obj:0)
STE(2,4)                             4911.33806785005 	(obj:0)
STE(2,5)                                    5669.9998 	(obj:0)
STE(2,6)                             6710.92143385004 	(obj:0)
STE(2,7)                             5908.10407118332 	(obj:0)
STE(2,8)                             6666.76580333326 	(obj:0)
STE(2,9)                              7707.6874371833 	(obj:0)
STE(2,10)                            7125.55627451672 	(obj:0)
STE(2,11)                            7884.21800666667 	(obj:0)
STE(2,12)                            8925.13964051671 	(obj:0)
STE(3,13)                            3455.78159333334 	(obj:0)
STE(3,14)                            4249.84734956529 	(obj:0)
STE(3,15)                            5290.76898341533 	(obj:0)
STE(3,16)                            4214.44332548338 	(obj:0)
STE(3,17)                            5008.50908171524 	(obj:0)
STE(3,18)                            6049.43071556528 	(obj:0)
STE(3,19)                            5255.36495933343 	(obj:0)
STE(3,20)                            6049.43071556528 	(obj:0)
STE(3,21)                            7090.35234941531 	(obj:0)
STE(3,22)                             4452.5475966667 	(obj:0)
STE(3,23)                            5246.61335289855 	(obj:0)
STE(3,24)                            6287.53498674859 	(obj:0)
STE(3,25)                            5211.20932881666 	(obj:0)
STE(3,26)                             6005.2750850485 	(obj:0)
STE(3,27)                            7046.19671889854 	(obj:0)
STE(3,28)                            6252.13096266664 	(obj:0)
STE(3,29)                            7046.19671889855 	(obj:0)
STE(3,30)                            8087.11835274858 	(obj:0)
STE(3,31)                                   5669.9998 	(obj:0)
STE(3,32)                            6464.06555623196 	(obj:0)
STE(3,33)                              7504.987190082 	(obj:0)
STE(3,34)                            6428.66153214994 	(obj:0)
STE(3,35)                            7222.72728838191 	(obj:0)
STE(3,36)                            8263.64892223195 	(obj:0)
STE(3,37)                            7469.58316600007 	(obj:0)
STE(3,38)                            8263.64892223195 	(obj:0)
STE(3,39)                            9304.57055608198 	(obj:0)
y1(3,25)                             289.400827064941 	(obj:0)
y1(3,28)                             289.400827064996 	(obj:0)
y1(3,31)                             289.400827065046 	(obj:0)
y1(3,34)                             289.400827065051 	(obj:0)
y1(3,37)                             289.400827064974 	(obj:0)
BG(3)                                2757.75961639289 	(obj:10)
AVE(1)                               3199.95851117552 	(obj:0)
WB(2)                                 802.69784132519 	(obj:0)
AVE(2)                               3265.15049132519 	(obj:0)
WB(3)                                3291.35535332476 	(obj:0)
AVE(3)                               3291.35535332476 	(obj:0)
WG(1)                                3199.95851117552 	(obj:10)
WG(2)                                      2462.45265 	(obj:10)
BG(1)                                5687.08162753363 	(obj:10)
y1(1,1)                              6296.09573893496 	(obj:0)
y1(1,2)                              5399.00633593502 	(obj:0)
y1(1,3)                              4303.29935293495 	(obj:0)
y1(3,13)                             289.400827065035 	(obj:0)
y1(3,16)                             289.400827064954 	(obj:0)
y1(3,19)                             289.400827064945 	(obj:0)
y1(3,22)                             289.400827064954 	(obj:0)
y2(2,5)                              798.591296999948 	(obj:0)
y2(2,6)                              1894.29827999999 	(obj:0)
y2(2,8)                              798.591296999947 	(obj:0)
y2(2,9)                              1894.29827999999 	(obj:0)
y2(2,11)                             798.591296999947 	(obj:0)
y2(2,12)                             1894.29827999999 	(obj:0)
y2(3,14)                               497.3781912792 	(obj:0)
y2(3,15)                             1593.08517427924 	(obj:0)
y2(3,17)                               497.3781912792 	(obj:0)
y2(3,18)                             1593.08517427924 	(obj:0)
y2(3,20)                               497.3781912792 	(obj:0)
y2(3,21)                             1593.08517427924 	(obj:0)
y2(3,23)                               497.3781912792 	(obj:0)
